0
0
0
0
6
5
0
0
14
0
0
5
0
7
8
0
0
6
0
0
0
7
0
0
0
11
4
0
4
0
0
9
0
0
5
0
0
15
0
0
0
0
0
4
0
13
0
0
22
4
10
0
0
0
0
0
0
5
0
23
0
0
0
0
0
15
0
0
0
0
5
7
0
7
0
0
19
6
0
8
48
18
13
0
0
0
0
0
4
13
0
8
0
0
0
0
5
5
0
0
